100 100 100
50
85 86 35
91 67 43
48 46 24
69 20 85
98 87 37
79 38 88
8 98 93
96 75 13
67 80 17
98 75 10
86 93 22
76 87 47
78 79 43
82 90 34
93 95 9
71 76 33
73 71 4
78 79 24
46 31 34
45 45 32
74 71 28
4 91 73
76 35 86
77 50 70
70 93 56
96 69 41
100 66 2
23 84 80
85 69 23
27 74 96
92 73 13
97 31 69
74 78 16
87 88 28
41 77 69
76 74 54
16 74 81
91 86 43
67 72 12
68 100 20
88 74 25
16 81 97
88 93 3
76 5 72
94 94 13
97 82 16
90 68 23
33 66 91
93 98 23
1 84 70
